000 000 000 000 -99 000 000 000 -99 -99 -99 -99 000 000 000 -99 -99 -99 -99 000 -99 -99 -99 -99 000 000 000 -99 -99 002 001
-99 000 -99 000 -99 000 000 000 -99 -99 -99 -99 -99 -99 000 000 -99 -99 -99 000 000 -99 -99 -99 -99 000 000 -99 -99 003 001
000 000 -99 000 000 000 000 000 -99 -99 -99 -99 -99 -99 000 000 -99 -99 -99 -99 -99 -99 -99 -99 000 000 000 000 000 -99 005
000 000 000 000 000 000 000 000 000 -99 -99 -99 -99 -99 000 000 -99 -99 -99 -99 -99 -99 -99 000 000 -99 000 000 000 -99 001
000 000 000 000 000 000 000 000 000 -99 -99 -99 000 000 -99 000 000 -99 -99 -99 000 000 -99 000 000 000 000 000 000 -99 -99
000 000 000 000 000 000 000 000 000 000 -99 -99 000 000 000 000 000 000 -99 -99 000 000 -99 000 000 000 000 -99 -99 -99 -99
000 000 000 000 000 000 000 000 000 000 -99 -99 -99 000 000 000 000 000 -99 -99 000 000 -99 000 000 000 000 -99 -99 -99 -99
000 000 000 000 000 000 000 000 000 000 -99 -99 -99 000 -99 -99 000 000 -99 -99 000 000 -99 000 000 000 000 -99 -99 000 000
000 000 000 000 000 000 000 000 000 000 000 -99 -99 -99 -99 -99 000 000 000 -99 000 000 000 000 000 000 000 000 -99 000 000
000 000 000 000 000 000 000 000 000 000 000 -99 -99 -99 000 -99 -99 000 000 000 000 000 -99 -99 000 000 -99 000 000 000 000
000 000 000 000 000 000 000 000 000 -99 -99 -99 -99 -99 000 000 -99 000 000 000 000 000 000 -99 -99 -99 -99 -99 000 000 000
000 000 000 000 -99 000 000 -99 -99 -99 -99 -99 000 000 000 000 -99 -99 -99 000 000 000 000 -99 -99 -99 -99 -99 000 000 000
-99 -99 -99 -99 000 000 000 000 -99 -99 -99 000 000 000 000 000 000 -99 -99 000 000 000 -99 -99 000 000 -99 -99 000 000 -99
-99 -99 -99 000 000 000 000 000 000 -99 000 -99 000 000 -99 000 000 -99 000 000 000 000 000 -99 000 000 -99 000 000 000 -99
-99 -99 000 000 -99 000 000 000 000 000 000 000 000 -99 -99 000 000 -99 000 000 -99 000 000 000 000 000 000 000 000 000 000
-99 -99 -99 -99 -99 000 000 000 000 000 000 000 000 000 001 000 000 000 000 000 -99 000 000 000 000 000 000 000 000 000 000
-99 -99 -99 -99 -99 -99 000 000 000 -99 000 000 -99 001 002 000 000 000 000 -99 -99 000 000 000 000 000 -99 000 000 000 000
000 -99 -99 -99 -99 -99 -99 000 000 -99 -99 -99 -99 -99 001 001 000 000 -99 -99 -99 000 000 000 -99 000 -99 -99 000 000 000
000 000 000 -99 -99 -99 -99 000 000 000 -99 -99 -99 000 000 000 000 000 -99 -99 000 000 000 -99 -99 -99 -99 -99 000 000 -99
000 000 000 -99 -99 -99 -99 000 000 000 000 000 -99 000 000 000 000 000 -99 000 000 000 000 -99 -99 -99 -99 -99 -99 -99 -99
000 000 000 000 000 -99 -99 000 000 000 -99 -99 -99 000 000 000 000 000 000 000 000 000 000 -99 -99 -99 000 -99 -99 -99 -99
000 000 000 000 000 -99 -99 000 000 000 -99 -99 -99 000 000 000 000 000 000 000 000 000 000 -99 000 000 000 -99 005 -99 -99
000 000 000 000 000 000 -99 000 000 000 -99 -99 -99 000 000 000 000 000 000 000 000 000 000 001 001 001 000 -99 005 -99 -99
000 000 000 -99 000 000 -99 000 000 000 -99 -99 000 000 000 000 000 000 000 000 000 000 001 002 003 004 002 013 004 -99 -99
000 000 000 000 000 000 -99 000 000 000 000 -99 000 000 000 000 000 000 000 000 000 000 003 004 009 008 005 013 018 008 002
000 000 000 000 000 000 000 000 000 000 000 -99 000 000 000 000 000 000 000 000 001 000 002 005 022 015 024 013 021 016 003
000 000 000 000 000 000 000 000 000 000 -99 -99 -99 000 000 000 000 001 000 001 002 001 003 017 037 028 040 011 024 018 005
000 000 000 000 000 000 -99 000 000 000 -99 -99 -99 000 000 000 000 000 000 001 002 001 006 027 051 025 016 009 022 018 013
000 000 000 -99 000 000 000 000 000 000 -99 -99 000 000 000 000 000 000 000 002 002 001 009 025 033 021 014 012 020 022 031
000 000 000 -99 000 000 000 000 000 000 -99 -99 -99 000 000 000 000 000 000 004 004 001 011 037 047 020 013 017 021 029 042
000 000 000 000 000 000 000 000 000 -99 -99 -99 000 000 000 000 000 000 000 006 005 001 011 056 064 032 026 018 020 031 028
000 -99 000 000 000 -99 000 000 000 000 -99 -99 000 000 000 -99 000 000 000 005 002 001 009 043 048 043 041 037 042 040 014
-99 -99 000 000 000 000 000 000 000 000 -99 -99 000 000 000 -99 000 000 000 000 000 001 005 028 025 035 026 021 021 010 003
000 -99 000 000 000 000 000 -99 000 000 -99 000 000 000 000 000 000 000 000 000 000 000 001 021 021 023 015 004 007 003 000
000 000 000 000 000 000 000 000 000 000 -99 000 000 000 000 000 000 000 000 000 000 000 001 003 004 005 004 002 003 001 000
000 000 -99 000 000 000 000 000 000 000 000 -99 000 000 000 000 000 -99 000 000 000 000 001 000 000 000 000 001 001 000 000
000 000 -99 000 000 -99 -99 -99 000 -99 000 -99 000 000 000 000 000 000 000 000 000 000 000 000 000 000 000 000 000 000 000
000 000 -99 -99 -99 -99 -99 -99 -99 -99 -99 -99 000 000 000 000 000 000 000 000 000 -99 000 000 000 000 000 000 000 000 000
000 000 -99 -99 000 000 -99 -99 -99 -99 -99 -99 -99 000 000 000 000 000 000 000 000 -99 000 000 000 -99 000 000 000 000 -99
000 -99 -99 000 000 -99 -99 -99 -99 -99 -99 000 000 000 000 000 000 000 000 -99 000 -99 000 000 -99 -99 000 000 000 -99 -99
-99 -99 000 000 000 -99 -99 -99 -99 -99 000 000 000 000 000 -99 -99 -99 -99 000 -99 -99 -99 -99 -99 000 000 -99 -99 -99 -99
000 -99 -99 000 -99 -99 -99 -99 -99 000 000 000 000 000 000 000 000 000 -99 000 -99 -99 -99 -99 000 -99 -99 -99 -99 -99 -99
-99 -99 -99 -99 -99 -99 -99 -99 -99 000 000 000 000 000 -99 000 000 000 -99 000 -99 -99 -99 -99 000 -99 -99 -99 -99 -99 -99
-99 -99 -99 -99 -99 -99 -99 -99 -99 -99 -99 000 000 000 000 000 000 -99 000 000 000 -99 -99 -99 000 000 -99 -99 -99 -99 -99
-99 -99 -99 -99 -99 -99 -99 -99 -99 -99 -99 000 000 -99 000 000 000 -99 000 000 000 -99 -99 000 000 -99 -99 -99 -99 -99 -99
-99 -99 -99 -99 -99 -99 -99 -99 -99 -99 -99 000 000 000 -99 -99 -99 000 000 000 -99 -99 -99 000 000 -99 -99 000 -99 -99 -99
-99 -99 -99 -99 -99 -99 -99 -99 -99 -99 -99 000 -99 -99 -99 -99 -99 000 000 000 -99 -99 -99 000 000 -99 000 -99 -99 -99 -99
-99 -99 -99 -99 -99 -99 -99 -99 -99 -99 -99 -99 000 000 -99 -99 -99 000 000 -99 -99 -99 -99 -99 -99 -99 -99 000 -99 -99 -99
000 -99 -99 -99 -99 -99 -99 -99 -99 -99 -99 -99 -99 -99 -99 -99 -99 000 000 -99 -99 -99 -99 -99 -99 -99 -99 -99 -99 -99 -99
000 -99 -99 -99 -99 -99 -99 -99 -99 -99 -99 000 -99 -99 -99 -99 -99 000 000 -99 -99 -99 -99 -99 -99 -99 -99 -99 -99 -99 -99
-99 -99 -99 -99 -99 -99 -99 -99 -99 -99 -99 -99 000 -99 -99 -99 000 000 -99 -99 -99 -99 -99 -99 -99 -99 -99 -99 -99 -99 -99
-99 -99 -99 -99 -99 -99 -99 -99 -99 -99 -99 -99 000 000 -99 -99 -99 000 -99 -99 -99 -99 -99 -99 -99 -99 -99 -99 -99 -99 -99
-99 -99 -99 -99 -99 -99 -99 -99 -99 -99 -99 -99 -99 -99 -99 -99 -99 -99 -99 -99 -99 -99 -99 -99 -99 -99 -99 -99 -99 -99 -99
-99 -99 -99 -99 -99 -99 -99 -99 -99 -99 -99 -99 -99 -99 -99 -99 -99 -99 -99 -99 -99 -99 -99 -99 -99 -99 -99 -99 -99 -99 -99
-99 -99 -99 -99 -99 -99 -99 -99 -99 -99 -99 -99 -99 -99 -99 -99 -99 -99 -99 -99 -99 -99 -99 -99 -99 -99 -99 -99 -99 -99 -99
